m = 5; % number of couriers
n = 7; % number of packages

l = [8, 10, 5, 7, 11]; % maximum carriable weight per courier
s = [3, 6, 2, 5, 5, 3, 3]; % weight of each package

D = % distance matrix 
	 [| 5, 3, 8, 4, 7, 6, 4, 5
	 | 4, 4, 2, 5, 4, 3, 8, 8
	 | 8, 2, 2, 2, 2, 4, 6, 3
	 | 5, 6, 8, 5, 4, 3, 2, 3
	 | 5, 2, 2, 7, 4, 5, 8, 3
	 | 8, 4, 7, 5, 7, 4, 8, 4
	 | 2, 3, 6, 5, 8, 7, 5, 8
	 | 8, 4, 6, 6, 7, 4, 3, 7
	 |];